c Random generated cnf formula, satisfiable: true
p cnf 10 50
-5 3 10 0
6 -1 9 0
6 -8 -2 0
-8 -2 4 0
-10 -6 -7 0
10 -5 9 0
-6 7 -1 0
-5 -10 -7 0
5 3 -1 0
10 5 8 0
6 -5 8 0
-4 -2 5 0
3 7 -4 0
6 1 4 0
-3 -7 -1 0
-10 6 1 0
-6 -8 -7 0
-9 -4 -5 0
-2 -9 7 0
4 10 -8 0
5 2 6 0
-8 -10 5 0
7 -2 1 0
-10 -3 -7 0
8 3 7 0
-8 1 6 0
-5 -3 10 0
6 3 9 0
10 6 -7 0
-6 -2 -5 0
5 2 7 0
-6 5 -7 0
3 5 -10 0
6 4 3 0
10 6 -3 0
-2 -10 7 0
-3 1 -2 0
8 -6 3 0
-8 -7 -6 0
2 -10 -4 0
-4 7 -10 0
-2 9 -4 0
2 10 9 0
-9 5 10 0
-8 -1 5 0
-2 -8 -4 0
9 1 5 0
6 -3 -8 0
-6 5 -4 0
3 10 5 0
